0
CPXPARAM_MIP_Cuts_Covers 0
1
CPXPARAM_MIP_Cuts_Covers 0
2
CPXPARAM_MIP_Cuts_Covers 0
3
CPXPARAM_MIP_Cuts_Covers 0
4
CPXPARAM_MIP_Cuts_Covers 0
5
CPXPARAM_MIP_Cuts_Covers 0
6
CPXPARAM_MIP_Cuts_Covers 0
7
CPXPARAM_MIP_Cuts_Covers 0
8
CPXPARAM_MIP_Cuts_Covers 0
9
CPXPARAM_MIP_Cuts_Covers 0
10
CPXPARAM_MIP_Cuts_Covers 0
11
CPXPARAM_MIP_Cuts_Covers 0
12
CPXPARAM_MIP_Cuts_Covers 0
13
CPXPARAM_MIP_Cuts_Covers 0
14
CPXPARAM_MIP_Cuts_Covers 0
15
CPXPARAM_MIP_Cuts_Covers 0
16
CPXPARAM_MIP_Cuts_Covers 0
17
CPXPARAM_MIP_Cuts_Covers 0
18
CPXPARAM_MIP_Cuts_Covers 0
19
CPXPARAM_MIP_Cuts_Covers 0
20
CPXPARAM_MIP_Cuts_Covers 0
21
CPXPARAM_MIP_Cuts_Covers 0
22
CPXPARAM_MIP_Cuts_Covers 0
23
CPXPARAM_MIP_Cuts_Covers 0
24
CPXPARAM_MIP_Cuts_Covers 0
25
CPXPARAM_MIP_Cuts_Covers 0
26
CPXPARAM_MIP_Cuts_Covers 0
27
CPXPARAM_MIP_Cuts_Covers 0
28
CPXPARAM_MIP_Cuts_Covers 0
29
CPXPARAM_MIP_Cuts_Covers 0
30
CPXPARAM_MIP_Cuts_Covers 0
31
CPXPARAM_MIP_Cuts_Covers 0
32
CPXPARAM_MIP_Cuts_Covers 0
33
CPXPARAM_MIP_Cuts_Covers 0
34
CPXPARAM_MIP_Cuts_Covers 0
35
CPXPARAM_MIP_Cuts_Covers 0
36
CPXPARAM_MIP_Cuts_Covers 0
37
CPXPARAM_MIP_Cuts_Covers 0
38
CPXPARAM_MIP_Cuts_Covers 0
39
CPXPARAM_MIP_Cuts_Covers 0
